50
1 0 43
2 0 15
2 1 14
3 0 12
3 1 62
3 2 36
4 0 86
4 1 59
4 2 50
4 3 41
5 0 31
5 1 17
5 2 39
5 3 33
5 4 91
6 0 56
6 1 2
6 2 79
6 3 8
6 4 78
6 5 16
7 0 9
7 1 90
7 2 15
7 3 59
7 4 20
7 5 27
7 6 71
8 0 2
8 1 68
8 2 77
8 3 89
8 4 76
8 5 77
8 6 80
8 7 88
9 0 42
9 1 83
9 2 51
9 3 13
9 4 76
9 5 23
9 6 83
9 7 91
9 8 53
10 0 4
10 1 57
10 2 94
10 3 1
10 4 32
10 5 17
10 6 27
10 7 46
10 8 88
10 9 92
11 0 14
11 1 78
11 2 65
11 3 49
11 4 57
11 5 1
11 6 14
11 7 12
11 8 56
11 9 57
11 10 67
12 0 91
12 1 54
12 2 31
12 3 20
12 4 98
12 5 24
12 6 72
12 7 10
12 8 42
12 9 10
12 10 100
12 11 14
13 0 37
13 1 7
13 2 69
13 3 42
13 4 62
13 5 14
13 6 25
13 7 22
13 8 54
13 9 26
13 10 57
13 11 84
13 12 28
14 0 33
14 1 39
14 2 99
14 3 52
14 4 27
14 5 28
14 6 29
14 7 24
14 8 71
14 9 35
14 10 82
14 11 19
14 12 55
14 13 3
15 0 99
15 1 18
15 2 37
15 3 64
15 4 6
15 5 31
15 6 75
15 7 40
15 8 97
15 9 65
15 10 69
15 11 27
15 12 57
15 13 22
15 14 80
16 0 69
16 1 15
16 2 100
16 3 91
16 4 12
16 5 99
16 6 59
16 7 37
16 8 98
16 9 39
16 10 59
16 11 13
16 12 29
16 13 24
16 14 77
16 15 25
17 0 34
17 1 16
17 2 86
17 3 64
17 4 86
17 5 85
17 6 18
17 7 9
17 8 82
17 9 10
17 10 74
17 11 79
17 12 65
17 13 53
17 14 34
17 15 7
17 16 59
18 0 20
18 1 88
18 2 100
18 3 42
18 4 49
18 5 93
18 6 96
18 7 81
18 8 96
18 9 19
18 10 50
18 11 4
18 12 9
18 13 46
18 14 3
18 15 73
18 16 8
18 17 24
19 0 10
19 1 7
19 2 17
19 3 3
19 4 41
19 5 43
19 6 11
19 7 100
19 8 73
19 9 40
19 10 74
19 11 64
19 12 36
19 13 84
19 14 77
19 15 39
19 16 98
19 17 21
19 18 39
20 0 60
20 1 80
20 2 43
20 3 11
20 4 14
20 5 43
20 6 1
20 7 99
20 8 55
20 9 95
20 10 12
20 11 30
20 12 58
20 13 4
20 14 4
20 15 10
20 16 51
20 17 16
20 18 88
20 19 40
21 0 61
21 1 16
21 2 73
21 3 77
21 4 53
21 5 76
21 6 55
21 7 70
21 8 64
21 9 79
21 10 48
21 11 99
21 12 46
21 13 24
21 14 36
21 15 98
21 16 81
21 17 37
21 18 57
21 19 46
21 20 24
22 0 41
22 1 68
22 2 41
22 3 98
22 4 79
22 5 34
22 6 14
22 7 32
22 8 80
22 9 44
22 10 34
22 11 20
22 12 2
22 13 49
22 14 7
22 15 62
22 16 14
22 17 78
22 18 77
22 19 84
22 20 88
22 21 73
23 0 91
23 1 65
23 2 10
23 3 43
23 4 66
23 5 19
23 6 44
23 7 43
23 8 81
23 9 9
23 10 96
23 11 20
23 12 89
23 13 82
23 14 63
23 15 74
23 16 3
23 17 59
23 18 72
23 19 35
23 20 21
23 21 27
23 22 39
24 0 61
24 1 81
24 2 2
24 3 3
24 4 95
24 5 66
24 6 63
24 7 8
24 8 35
24 9 1
24 10 90
24 11 57
24 12 16
24 13 8
24 14 39
24 15 42
24 16 6
24 17 9
24 18 39
24 19 31
24 20 56
24 21 7
24 22 13
24 23 68
25 0 60
25 1 73
25 2 31
25 3 16
25 4 26
25 5 7
25 6 60
25 7 45
25 8 45
25 9 85
25 10 80
25 11 50
25 12 21
25 13 81
25 14 56
25 15 54
25 16 4
25 17 31
25 18 5
25 19 14
25 20 19
25 21 92
25 22 96
25 23 60
25 24 8
26 0 93
26 1 60
26 2 15
26 3 6
26 4 100
26 5 5
26 6 83
26 7 32
26 8 26
26 9 72
26 10 9
26 11 65
26 12 70
26 13 65
26 14 33
26 15 23
26 16 61
26 17 39
26 18 11
26 19 89
26 20 34
26 21 42
26 22 60
26 23 21
26 24 85
26 25 35
27 0 51
27 1 67
27 2 53
27 3 36
27 4 71
27 5 67
27 6 52
27 7 72
27 8 12
27 9 90
27 10 36
27 11 17
27 12 62
27 13 69
27 14 68
27 15 72
27 16 14
27 17 19
27 18 50
27 19 96
27 20 8
27 21 46
27 22 99
27 23 99
27 24 79
27 25 88
27 26 98
28 0 74
28 1 72
28 2 40
28 3 63
28 4 94
28 5 46
28 6 68
28 7 83
28 8 33
28 9 82
28 10 100
28 11 45
28 12 72
28 13 67
28 14 52
28 15 36
28 16 1
28 17 16
28 18 32
28 19 91
28 20 28
28 21 49
28 22 19
28 23 37
28 24 56
28 25 52
28 26 31
28 27 26
29 0 95
29 1 75
29 2 6
29 3 93
29 4 10
29 5 39
29 6 67
29 7 51
29 8 22
29 9 79
29 10 59
29 11 20
29 12 29
29 13 25
29 14 60
29 15 66
29 16 96
29 17 1
29 18 7
29 19 69
29 20 35
29 21 3
29 22 7
29 23 73
29 24 83
29 25 78
29 26 100
29 27 64
29 28 38
30 0 20
30 1 3
30 2 1
30 3 21
30 4 39
30 5 67
30 6 81
30 7 60
30 8 3
30 9 100
30 10 12
30 11 27
30 12 23
30 13 55
30 14 39
30 15 79
30 16 47
30 17 78
30 18 32
30 19 56
30 20 95
30 21 77
30 22 38
30 23 69
30 24 19
30 25 43
30 26 59
30 27 70
30 28 4
30 29 37
31 0 98
31 1 68
31 2 24
31 3 35
31 4 98
31 5 68
31 6 22
31 7 75
31 8 54
31 9 24
31 10 86
31 11 74
31 12 75
31 13 26
31 14 30
31 15 81
31 16 46
31 17 86
31 18 1
31 19 6
31 20 76
31 21 82
31 22 89
31 23 31
31 24 72
31 25 64
31 26 90
31 27 91
31 28 59
31 29 48
31 30 54
32 0 93
32 1 30
32 2 38
32 3 29
32 4 90
32 5 5
32 6 67
32 7 72
32 8 54
32 9 25
32 10 34
32 11 89
32 12 94
32 13 29
32 14 82
32 15 27
32 16 20
32 17 64
32 18 46
32 19 37
32 20 54
32 21 36
32 22 64
32 23 67
32 24 31
32 25 15
32 26 34
32 27 60
32 28 50
32 29 37
32 30 48
32 31 75
33 0 54
33 1 64
33 2 57
33 3 44
33 4 62
33 5 8
33 6 26
33 7 31
33 8 87
33 9 20
33 10 94
33 11 73
33 12 85
33 13 8
33 14 51
33 15 4
33 16 48
33 17 26
33 18 88
33 19 92
33 20 33
33 21 45
33 22 92
33 23 48
33 24 68
33 25 22
33 26 81
33 27 83
33 28 2
33 29 99
33 30 9
33 31 24
33 32 71
34 0 10
34 1 83
34 2 7
34 3 15
34 4 85
34 5 76
34 6 19
34 7 57
34 8 68
34 9 19
34 10 57
34 11 23
34 12 88
34 13 16
34 14 5
34 15 76
34 16 66
34 17 11
34 18 80
34 19 94
34 20 25
34 21 95
34 22 79
34 23 4
34 24 44
34 25 44
34 26 14
34 27 55
34 28 86
34 29 21
34 30 54
34 31 2
34 32 74
34 33 69
35 0 81
35 1 22
35 2 98
35 3 6
35 4 32
35 5 90
35 6 89
35 7 79
35 8 4
35 9 83
35 10 73
35 11 34
35 12 18
35 13 94
35 14 10
35 15 30
35 16 86
35 17 70
35 18 74
35 19 83
35 20 24
35 21 11
35 22 20
35 23 35
35 24 99
35 25 85
35 26 63
35 27 64
35 28 11
35 29 52
35 30 45
35 31 100
35 32 43
35 33 10
35 34 80
36 0 8
36 1 26
36 2 92
36 3 89
36 4 37
36 5 16
36 6 76
36 7 88
36 8 71
36 9 68
36 10 6
36 11 62
36 12 12
36 13 51
36 14 17
36 15 56
36 16 90
36 17 54
36 18 16
36 19 68
36 20 77
36 21 65
36 22 74
36 23 11
36 24 51
36 25 21
36 26 12
36 27 95
36 28 36
36 29 73
36 30 99
36 31 25
36 32 14
36 33 10
36 34 93
36 35 49
37 0 90
37 1 19
37 2 92
37 3 67
37 4 45
37 5 3
37 6 77
37 7 2
37 8 20
37 9 68
37 10 52
37 11 96
37 12 8
37 13 41
37 14 37
37 15 78
37 16 51
37 17 12
37 18 54
37 19 19
37 20 67
37 21 79
37 22 3
37 23 57
37 24 52
37 25 48
37 26 39
37 27 85
37 28 40
37 29 38
37 30 85
37 31 13
37 32 10
37 33 59
37 34 38
37 35 49
37 36 67
38 0 91
38 1 67
38 2 70
38 3 51
38 4 69
38 5 96
38 6 68
38 7 35
38 8 44
38 9 26
38 10 100
38 11 33
38 12 4
38 13 43
38 14 70
38 15 10
38 16 45
38 17 13
38 18 27
38 19 78
38 20 30
38 21 58
38 22 54
38 23 25
38 24 98
38 25 65
38 26 82
38 27 86
38 28 90
38 29 80
38 30 62
38 31 83
38 32 5
38 33 78
38 34 61
38 35 78
38 36 17
38 37 15
39 0 85
39 1 12
39 2 1
39 3 8
39 4 32
39 5 32
39 6 57
39 7 89
39 8 36
39 9 31
39 10 29
39 11 39
39 12 47
39 13 41
39 14 56
39 15 94
39 16 61
39 17 71
39 18 4
39 19 73
39 20 4
39 21 61
39 22 64
39 23 82
39 24 19
39 25 10
39 26 16
39 27 88
39 28 15
39 29 92
39 30 99
39 31 58
39 32 90
39 33 62
39 34 24
39 35 24
39 36 18
39 37 38
39 38 32
40 0 10
40 1 67
40 2 75
40 3 86
40 4 29
40 5 100
40 6 4
40 7 32
40 8 42
40 9 62
40 10 84
40 11 85
40 12 34
40 13 64
40 14 78
40 15 22
40 16 52
40 17 4
40 18 81
40 19 84
40 20 99
40 21 5
40 22 39
40 23 11
40 24 1
40 25 49
40 26 35
40 27 82
40 28 70
40 29 32
40 30 54
40 31 26
40 32 34
40 33 81
40 34 23
40 35 4
40 36 20
40 37 97
40 38 8
40 39 19
41 0 93
41 1 29
41 2 16
41 3 75
41 4 1
41 5 72
41 6 15
41 7 88
41 8 74
41 9 66
41 10 85
41 11 47
41 12 70
41 13 28
41 14 63
41 15 53
41 16 84
41 17 37
41 18 45
41 19 100
41 20 38
41 21 71
41 22 44
41 23 58
41 24 41
41 25 56
41 26 30
41 27 94
41 28 82
41 29 73
41 30 11
41 31 30
41 32 73
41 33 39
41 34 5
41 35 9
41 36 90
41 37 60
41 38 29
41 39 55
41 40 56
42 0 10
42 1 4
42 2 14
42 3 65
42 4 1
42 5 48
42 6 20
42 7 54
42 8 33
42 9 12
42 10 40
42 11 56
42 12 46
42 13 68
42 14 67
42 15 2
42 16 19
42 17 68
42 18 84
42 19 56
42 20 70
42 21 30
42 22 12
42 23 86
42 24 70
42 25 13
42 26 4
42 27 26
42 28 67
42 29 95
42 30 76
42 31 68
42 32 85
42 33 59
42 34 53
42 35 88
42 36 44
42 37 55
42 38 89
42 39 6
42 40 8
42 41 3
43 0 2
43 1 29
43 2 73
43 3 28
43 4 98
43 5 19
43 6 39
43 7 66
43 8 7
43 9 93
43 10 36
43 11 82
43 12 45
43 13 52
43 14 85
43 15 72
43 16 61
43 17 81
43 18 32
43 19 49
43 20 59
43 21 82
43 22 76
43 23 46
43 24 84
43 25 24
43 26 76
43 27 66
43 28 13
43 29 22
43 30 18
43 31 72
43 32 6
43 33 81
43 34 61
43 35 3
43 36 91
43 37 69
43 38 16
43 39 49
43 40 92
43 41 1
43 42 8
44 0 24
44 1 28
44 2 50
44 3 28
44 4 17
44 5 46
44 6 15
44 7 83
44 8 26
44 9 53
44 10 13
44 11 94
44 12 81
44 13 68
44 14 86
44 15 4
44 16 22
44 17 9
44 18 13
44 19 91
44 20 99
44 21 89
44 22 94
44 23 6
44 24 94
44 25 77
44 26 41
44 27 70
44 28 81
44 29 53
44 30 79
44 31 9
44 32 91
44 33 70
44 34 57
44 35 12
44 36 36
44 37 85
44 38 15
44 39 31
44 40 2
44 41 41
44 42 60
44 43 67
45 0 35
45 1 98
45 2 46
45 3 11
45 4 65
45 5 52
45 6 57
45 7 22
45 8 36
45 9 90
45 10 48
45 11 80
45 12 62
45 13 64
45 14 79
45 15 35
45 16 4
45 17 86
45 18 61
45 19 33
45 20 43
45 21 83
45 22 91
45 23 9
45 24 2
45 25 56
45 26 41
45 27 56
45 28 33
45 29 29
45 30 47
45 31 33
45 32 82
45 33 90
45 34 83
45 35 52
45 36 79
45 37 62
45 38 45
45 39 60
45 40 41
45 41 47
45 42 64
45 43 21
45 44 70
46 0 29
46 1 22
46 2 48
46 3 79
46 4 50
46 5 55
46 6 42
46 7 98
46 8 69
46 9 47
46 10 42
46 11 19
46 12 77
46 13 61
46 14 3
46 15 99
46 16 39
46 17 62
46 18 26
46 19 31
46 20 74
46 21 22
46 22 41
46 23 30
46 24 97
46 25 15
46 26 100
46 27 23
46 28 79
46 29 42
46 30 25
46 31 23
46 32 10
46 33 42
46 34 39
46 35 28
46 36 67
46 37 85
46 38 48
46 39 79
46 40 14
46 41 42
46 42 78
46 43 61
46 44 95
46 45 92
47 0 66
47 1 42
47 2 96
47 3 99
47 4 69
47 5 75
47 6 84
47 7 71
47 8 41
47 9 7
47 10 43
47 11 98
47 12 74
47 13 80
47 14 87
47 15 5
47 16 36
47 17 9
47 18 96
47 19 91
47 20 23
47 21 72
47 22 6
47 23 32
47 24 14
47 25 51
47 26 76
47 27 56
47 28 12
47 29 12
47 30 83
47 31 45
47 32 86
47 33 6
47 34 25
47 35 99
47 36 67
47 37 24
47 38 46
47 39 67
47 40 57
47 41 61
47 42 4
47 43 54
47 44 42
47 45 43
47 46 36
48 0 35
48 1 36
48 2 41
48 3 14
48 4 34
48 5 90
48 6 73
48 7 75
48 8 72
48 9 36
48 10 63
48 11 78
48 12 68
48 13 64
48 14 8
48 15 23
48 16 62
48 17 34
48 18 79
48 19 32
48 20 89
48 21 92
48 22 53
48 23 75
48 24 12
48 25 25
48 26 48
48 27 92
48 28 19
48 29 80
48 30 12
48 31 50
48 32 18
48 33 36
48 34 92
48 35 27
48 36 96
48 37 94
48 38 76
48 39 16
48 40 19
48 41 38
48 42 87
48 43 95
48 44 1
48 45 66
48 46 76
48 47 3
49 0 57
49 1 10
49 2 34
49 3 4
49 4 25
49 5 78
49 6 37
49 7 60
49 8 17
49 9 5
49 10 68
49 11 22
49 12 38
49 13 74
49 14 2
49 15 2
49 16 83
49 17 68
49 18 44
49 19 17
49 20 97
49 21 48
49 22 48
49 23 89
49 24 67
49 25 60
49 26 62
49 27 52
49 28 60
49 29 56
49 30 75
49 31 3
49 32 58
49 33 25
49 34 70
49 35 94
49 36 30
49 37 13
49 38 94
49 39 57
49 40 41
49 41 67
49 42 8
49 43 96
49 44 10
49 45 10
49 46 78
49 47 3
49 48 40
